c preprocessed version of HarborthGraph, 40 vertices, 80 edges
p td 40 80
0 1
0 8
0 5
0 7
1 2
1 5
1 4
2 3
2 4
23 2
4 3
3 21
23 3
5 4
5 6
7 6
6 21
6 12
8 7
7 9
8 9
8 10
10 9
9 11
10 11
36 10
11 12
36 11
12 13
35 12
13 14
35 13
33 13
14 15
14 18
33 14
15 16
15 31
32 15
16 17
16 31
16 30
18 17
17 29
17 30
19 18
18 26
20 19
19 24
21 20
22 20
22 21
22 23
24 25
24 28
25 26
25 28
25 27
26 27
26 29
28 27
27 29
30 29
31 30
32 31
32 33
32 34
33 34
34 35
34 36
35 36
37 22
37 23
38 37
38 19
38 20
39 37
39 38
39 24
39 28
